Solver command line: ['/opt/sw/arch/easybuild/2018b/software/CPLEX/12.9-GCCcore-8.2.0/cplex/bin/x86-64_linux/cplex']


Welcome to IBM(R) ILOG(R) CPLEX(R) Interactive Optimizer 12.9.0.0
  with Simplex, Mixed Integer & Barrier Optimizers
5725-A06 5725-A29 5724-Y48 5724-Y49 5724-Y54 5724-Y55 5655-Y21
Copyright IBM Corp. 1988, 2019.  All Rights Reserved.

Type 'help' for a list of available commands.
Type 'help' followed by a command name for more
information on commands.

CPLEX> Logfile 'cplex.log' closed.
Logfile 'obj_5_1.log' open.
CPLEX> New value for default parallel thread count: 16
CPLEX> New value for time limit in seconds: 900
CPLEX> New value for mixed integer optimality gap tolerance: 0.05
CPLEX> Problem '/localscratch/arosati/70372665/tmpo0tzq_wc.pyomo.lp' read.
Read time = 0.00 sec. (0.01 ticks)
CPLEX> MIP start file '/localscratch/arosati/70372665/tmpicq07h5k.cplex.mst' read.
CPLEX> Problem name         : /localscratch/arosati/70372665/tmpo0tzq_wc.pyomo.lp
Objective sense      : Maximize
Variables            :      60  [Nneg: 1,  General Integer: 59]
Objective nonzeros   :      45
Linear constraints   :     168  [Less: 161,  Equal: 7]
  Nonzeros           :     471
  RHS nonzeros       :     114

Variables            : Min LB: 0.000000         Max UB: 15.00000       
Objective nonzeros   : Min   : 4.518159         Max   : 4.923624       
Linear constraints   :
  Nonzeros           : Min   : 1.000000         Max   : 15.00000       
  RHS nonzeros       : Min   : 1.000000         Max   : 15.00000       
CPLEX> CPXPARAM_Threads                                 16
CPXPARAM_TimeLimit                               900
CPXPARAM_MIP_Tolerances_MIPGap                   0.050000000000000003
1 of 1 MIP starts provided solutions.
MIP start 'm1' defined initial solution with objective 55.8398.
Tried aggregator 1 time.
MIP Presolve eliminated 64 rows and 9 columns.
MIP Presolve modified 129 coefficients.
Reduced MIP has 103 rows, 51 columns, and 264 nonzeros.
Reduced MIP has 45 binaries, 6 generals, 0 SOSs, and 0 indicators.
Presolve time = 0.00 sec. (0.25 ticks)
Probing time = 0.00 sec. (0.06 ticks)
Cover probing fixed 0 vars, tightened 18 bounds.
Tried aggregator 1 time.
MIP Presolve eliminated 18 rows and 0 columns.
MIP Presolve modified 132 coefficients.
Reduced MIP has 85 rows, 51 columns, and 228 nonzeros.
Reduced MIP has 45 binaries, 6 generals, 0 SOSs, and 0 indicators.
Presolve time = 0.00 sec. (0.16 ticks)
Probing time = 0.00 sec. (0.05 ticks)
Clique table members: 15.
MIP emphasis: balance optimality and feasibility.
MIP search method: dynamic search.
Parallel mode: deterministic, using up to 16 threads.
Root relaxation solution time = 0.00 sec. (0.08 ticks)

        Nodes                                         Cuts/
   Node  Left     Objective  IInf  Best Integer    Best Bound    ItCnt     Gap

*     0+    0                           55.8398      209.3991           275.00%
      0     0        cutoff             55.8398                      1     --- 

Root node processing (before b&c):
  Real time             =    0.00 sec. (0.89 ticks)
Parallel b&c, 16 threads:
  Real time             =    0.00 sec. (0.00 ticks)
  Sync time (average)   =    0.00 sec.
  Wait time (average)   =    0.00 sec.
                          ------------
Total (root+branch&cut) =    0.00 sec. (0.89 ticks)

Solution pool: 1 solution saved.

MIP - Integer optimal solution:  Objective =  5.5839768000e+01
Solution time =    0.01 sec.  Iterations = 1  Nodes = 0
Deterministic time = 0.89 ticks  (137.26 ticks/sec)

CPLEX> Incumbent solution written to file '/localscratch/arosati/70372665/tmppz9rigjz.cplex.sol'.
CPLEX> 
